c graph converted from Delauney Triangulation format
c weights on edges removed (lost)
x low 0.00
p edge 200 586
n 0 1.00
n 131 1.00
n 52 1.00
n 84 1.00
n 114 1.00
n 144 1.00
n 19 1.00
n 1 1.00
n 172 1.00
n 34 1.00
n 167 1.00
n 67 1.00
n 180 1.00
n 2 1.00
n 58 1.00
n 72 1.00
n 188 1.00
n 68 1.00
n 3 1.00
n 191 1.00
n 100 1.00
n 162 1.00
n 146 1.00
n 4 1.00
n 136 1.00
n 104 1.00
n 85 1.00
n 177 1.00
n 195 1.00
n 151 1.00
n 5 1.00
n 186 1.00
n 53 1.00
n 108 1.00
n 156 1.00
n 6 1.00
n 81 1.00
n 198 1.00
n 31 1.00
n 158 1.00
n 116 1.00
n 134 1.00
n 7 1.00
n 182 1.00
n 21 1.00
n 133 1.00
n 145 1.00
n 154 1.00
n 16 1.00
n 126 1.00
n 8 1.00
n 137 1.00
n 123 1.00
n 117 1.00
n 77 1.00
n 25 1.00
n 9 1.00
n 91 1.00
n 174 1.00
n 98 1.00
n 10 1.00
n 95 1.00
n 51 1.00
n 165 1.00
n 83 1.00
n 11 1.00
n 92 1.00
n 48 1.00
n 39 1.00
n 45 1.00
n 120 1.00
n 110 1.00
n 12 1.00
n 176 1.00
n 64 1.00
n 26 1.00
n 197 1.00
n 122 1.00
n 14 1.00
n 78 1.00
n 13 1.00
n 35 1.00
n 56 1.00
n 107 1.00
n 105 1.00
n 159 1.00
n 15 1.00
n 178 1.00
n 62 1.00
n 50 1.00
n 142 1.00
n 24 1.00
n 17 1.00
n 189 1.00
n 36 1.00
n 109 1.00
n 183 1.00
n 28 1.00
n 18 1.00
n 118 1.00
n 148 1.00
n 63 1.00
n 41 1.00
n 20 1.00
n 101 1.00
n 153 1.00
n 139 1.00
n 163 1.00
n 74 1.00
n 22 1.00
n 143 1.00
n 168 1.00
n 23 1.00
n 60 1.00
n 171 1.00
n 135 1.00
n 173 1.00
n 89 1.00
n 33 1.00
n 192 1.00
n 190 1.00
n 27 1.00
n 38 1.00
n 37 1.00
n 55 1.00
n 147 1.00
n 87 1.00
n 29 1.00
n 88 1.00
n 40 1.00
n 166 1.00
n 76 1.00
n 160 1.00
n 30 1.00
n 46 1.00
n 66 1.00
n 32 1.00
n 99 1.00
n 155 1.00
n 80 1.00
n 44 1.00
n 102 1.00
n 57 1.00
n 140 1.00
n 196 1.00
n 70 1.00
n 129 1.00
n 128 1.00
n 113 1.00
n 54 1.00
n 185 1.00
n 42 1.00
n 132 1.00
n 199 1.00
n 43 1.00
n 47 1.00
n 115 1.00
n 152 1.00
n 187 1.00
n 119 1.00
n 103 1.00
n 169 1.00
n 65 1.00
n 49 1.00
n 94 1.00
n 149 1.00
n 138 1.00
n 184 1.00
n 71 1.00
n 61 1.00
n 82 1.00
n 193 1.00
n 86 1.00
n 124 1.00
n 161 1.00
n 73 1.00
n 97 1.00
n 170 1.00
n 59 1.00
n 127 1.00
n 157 1.00
n 79 1.00
n 150 1.00
n 141 1.00
n 69 1.00
n 75 1.00
n 90 1.00
n 194 1.00
n 130 1.00
n 179 1.00
n 106 1.00
n 181 1.00
n 93 1.00
n 96 1.00
n 112 1.00
n 125 1.00
n 164 1.00
n 111 1.00
n 175 1.00
n 121 1.00
e 0 131
e 0 52
e 0 84
e 0 114
e 0 144
e 0 19
e 1 172
e 1 34
e 1 167
e 1 67
e 1 180
e 2 58
e 2 72
e 2 188
e 2 68
e 3 191
e 3 100
e 3 162
e 3 146
e 4 136
e 4 104
e 4 85
e 4 177
e 4 195
e 4 151
e 5 186
e 5 53
e 5 108
e 5 156
e 6 81
e 6 198
e 6 31
e 6 158
e 6 116
e 6 134
e 7 182
e 7 21
e 7 133
e 7 145
e 7 154
e 7 16
e 7 126
e 8 137
e 8 123
e 8 117
e 8 81
e 8 77
e 8 25
e 9 91
e 9 174
e 9 98
e 10 95
e 10 51
e 10 165
e 10 83
e 11 146
e 11 162
e 11 92
e 11 48
e 11 39
e 11 45
e 11 120
e 11 110
e 12 176
e 12 64
e 12 26
e 12 197
e 12 122
e 12 14
e 12 78
e 13 35
e 13 56
e 13 107
e 13 191
e 13 174
e 13 98
e 13 105
e 14 122
e 14 78
e 14 144
e 14 159
e 15 178
e 15 62
e 15 50
e 15 117
e 16 142
e 16 145
e 16 24
e 16 126
e 16 134
e 17 189
e 17 48
e 17 36
e 17 109
e 17 183
e 17 28
e 18 98
e 18 91
e 18 118
e 18 148
e 18 189
e 19 159
e 19 63
e 19 41
e 19 134
e 19 144
e 19 114
e 19 116
e 20 101
e 20 153
e 20 139
e 20 163
e 21 74
e 21 133
e 21 182
e 22 163
e 22 143
e 22 172
e 22 168
e 22 34
e 23 60
e 23 171
e 23 135
e 23 120
e 23 31
e 23 173
e 23 158
e 24 142
e 24 89
e 24 33
e 24 134
e 25 60
e 25 137
e 25 135
e 25 77
e 25 198
e 25 31
e 26 192
e 26 146
e 26 39
e 26 64
e 26 197
e 26 190
e 27 38
e 27 37
e 27 55
e 27 147
e 27 87
e 28 109
e 28 183
e 28 171
e 28 60
e 29 163
e 29 88
e 29 168
e 29 67
e 29 40
e 29 166
e 29 76
e 29 160
e 30 64
e 30 186
e 30 156
e 30 46
e 30 176
e 30 66
e 31 135
e 31 198
e 31 158
e 32 99
e 32 155
e 32 80
e 32 44
e 32 35
e 33 89
e 33 102
e 33 57
e 33 140
e 33 134
e 34 168
e 34 67
e 34 172
e 35 99
e 35 56
e 35 44
e 35 196
e 35 174
e 36 189
e 36 178
e 36 117
e 36 183
e 36 123
e 36 137
e 36 60
e 37 55
e 37 70
e 37 38
e 38 70
e 38 129
e 38 87
e 38 128
e 38 113
e 39 146
e 39 190
e 39 131
e 39 110
e 40 58
e 40 88
e 40 166
e 41 54
e 41 185
e 41 126
e 41 134
e 41 63
e 42 132
e 42 136
e 42 104
e 42 151
e 42 147
e 42 199
e 42 140
e 43 47
e 43 115
e 43 152
e 43 187
e 43 62
e 43 178
e 44 80
e 44 196
e 45 109
e 45 48
e 45 171
e 45 120
e 46 156
e 46 119
e 46 66
e 47 83
e 47 165
e 47 103
e 47 118
e 47 169
e 47 65
e 47 152
e 47 115
e 48 148
e 48 189
e 48 92
e 48 109
e 49 85
e 49 94
e 49 149
e 49 138
e 49 167
e 49 184
e 49 71
e 49 61
e 49 82
e 50 62
e 50 193
e 50 117
e 50 81
e 51 86
e 51 95
e 51 83
e 51 169
e 51 193
e 51 81
e 52 131
e 52 110
e 52 114
e 53 180
e 53 124
e 53 167
e 53 186
e 53 184
e 53 61
e 53 108
e 53 74
e 54 66
e 54 119
e 54 185
e 54 161
e 54 63
e 55 177
e 55 151
e 55 195
e 55 70
e 55 147
e 56 99
e 56 73
e 56 107
e 57 97
e 57 170
e 57 140
e 57 113
e 57 102
e 58 72
e 58 88
e 58 68
e 58 166
e 59 68
e 59 107
e 59 166
e 59 191
e 59 100
e 59 127
e 59 192
e 60 137
e 60 183
e 60 135
e 60 171
e 61 184
e 61 82
e 61 74
e 62 187
e 62 193
e 62 178
e 63 161
e 63 159
e 64 157
e 64 79
e 64 150
e 64 186
e 64 192
e 64 176
e 65 152
e 65 118
e 65 178
e 65 189
e 66 176
e 66 119
e 66 161
e 67 168
e 67 180
e 67 160
e 68 141
e 68 188
e 68 107
e 68 166
e 69 75
e 69 101
e 69 143
e 69 90
e 70 138
e 70 195
e 70 129
e 71 138
e 71 129
e 71 82
e 71 128
e 72 194
e 72 130
e 72 101
e 72 153
e 72 188
e 72 88
e 73 155
e 73 99
e 73 179
e 73 141
e 73 107
e 74 82
e 74 108
e 74 133
e 74 106
e 74 182
e 74 154
e 75 181
e 75 101
e 75 93
e 75 90
e 76 166
e 76 157
e 76 160
e 76 79
e 77 81
e 77 198
e 78 176
e 78 159
e 79 160
e 79 150
e 79 157
e 80 155
e 80 96
e 80 196
e 81 117
e 81 193
e 81 198
e 82 128
e 82 133
e 83 165
e 83 169
e 84 131
e 84 190
e 84 144
e 85 181
e 85 94
e 85 112
e 85 136
e 85 138
e 85 195
e 86 130
e 86 125
e 86 194
e 86 95
e 87 147
e 87 97
e 87 113
e 87 199
e 88 153
e 88 139
e 88 163
e 89 102
e 89 142
e 90 93
e 90 143
e 90 149
e 90 94
e 91 174
e 91 196
e 91 118
e 91 98
e 92 162
e 92 105
e 92 148
e 93 181
e 93 94
e 94 181
e 94 149
e 95 164
e 95 125
e 95 165
e 96 130
e 96 125
e 96 179
e 96 155
e 96 164
e 96 103
e 96 196
e 97 113
e 97 199
e 97 170
e 98 174
e 98 105
e 98 148
e 99 155
e 100 191
e 100 192
e 100 146
e 101 194
e 101 153
e 101 181
e 101 143
e 101 163
e 102 113
e 102 128
e 102 145
e 102 142
e 103 164
e 103 196
e 103 165
e 103 118
e 104 136
e 104 151
e 105 148
e 105 191
e 105 162
e 106 156
e 106 108
e 106 154
e 106 111
e 107 141
e 107 191
e 108 156
e 109 171
e 110 131
e 110 120
e 110 173
e 110 114
e 110 116
e 111 156
e 111 119
e 111 154
e 111 126
e 112 194
e 112 175
e 112 132
e 112 181
e 112 136
e 113 128
e 114 116
e 115 121
e 115 169
e 115 187
e 115 193
e 116 173
e 116 158
e 116 134
e 117 178
e 117 123
e 118 196
e 118 189
e 119 156
e 119 126
e 119 185
e 120 171
e 120 173
e 121 169
e 121 193
e 122 197
e 122 144
e 123 137
e 124 160
e 124 180
e 124 150
e 124 186
e 125 130
e 125 164
e 126 185
e 126 134
e 126 154
e 127 166
e 127 157
e 127 192
e 128 129
e 128 133
e 128 145
e 129 138
e 130 194
e 130 188
e 130 179
e 130 141
e 131 190
e 132 175
e 132 136
e 133 145
e 138 195
e 139 153
e 139 163
e 140 199
e 140 170
e 141 188
e 141 179
e 142 145
e 143 163
e 143 149
e 143 172
e 144 190
e 144 197
e 144 159
e 146 162
e 146 192
e 147 151
e 147 199
e 148 189
e 149 172
e 149 167
e 150 160
e 150 186
e 151 177
e 152 178
e 154 182
e 155 179
e 156 186
e 157 166
e 157 192
e 158 173
e 159 176
e 159 161
e 160 180
e 161 176
e 162 191
e 163 168
e 164 165
e 167 172
e 167 184
e 167 180
e 169 193
e 170 199
e 174 196
e 175 194
e 177 195
e 178 189
e 181 194
e 187 193
e 190 197
